(declare-fun bvlambda_59_ () (_ BitVec 2))
(declare-fun a154 () (Array (_ BitVec 1) (_ BitVec 13)))
(assert
(let (($e1 (_ bv0 1)))
(let (($e19 (_ bv0 14)))
(let (($e20 (_ bv16382 14)))
(let (($e28 (_ bv0 11)))
(let (($e29 (_ bv722 14)))
(let (($e34 (_ bv472 13)))
(let (($e286               bvlambda_59_ ))
(let (($e287                           $e286       ))
(let (($e288        (bvnot $e20)               ))
(let (($e289 (   extract        $e287)))
(let (($e290                    $e288       ))
(let (($e291         $e290             ))
(let (($e292        $e29               ))
(let (($e294        $e289               ))
(let (($e295 (ite        $e294  $e292 $e19)))
(let (($e296 (ite        $e289  $e19 $e291)))
(let (($e297 (bvand (bvnot $e296) (bvnot $e295))))
(let (($e466                              #b0 ))
(let (($e538 (concat $e28 (bvnot $e466))))
(let (($e539 ((_ extract 8 8) $e297)))
(let (($e540 (store a154 $e1 $e34)))
(let (($e541 (select $e540 (bvnot $e539))))
(let (($e542 ((_ extract 11 0) $e541)))
                  (bvult $e542 $e538)
                                                                                                                                                                                                                                                                                                                                                                                                                                                                                                                                                                                                                                                                                                                                                                                                                                                                                                                                                                                                                                                                                                                                                                                                                                                                                                                                                                                                                                                                                                                                                                                                                                                                                                                                                                                                                                                                                                                                                                                                                                                                                                                                                                                                                                                                                                                                                                                                                        )))))                                                                       )                                                                                                                                                                        )))) )))))))                                                                                                                                                                                          )    ))       ))                 ))
